  Job Started  at 15:44.20  2nd December   2008

  Number of CPUs =     1

  Total number of configurations input =   1

*  Input for Configuration =   1                                               *

  Formula = D32C224

  Number of irreducible atoms/shells =     256

  Total number atoms/shells =     256

  Dimensionality = 3               :  Bulk

  Supercell dimensions :  x =   4  y =   2  z =   1

  Cartesian lattice vectors (Angstroms) :

       25.991861    0.000000    0.000000
        0.000000   22.509612    0.000000
        0.000000    0.000000   80.000000

  Cell parameters (Angstroms/Degrees):

  a =      25.9919    alpha =  90.0000
  b =      22.5096    beta  =  90.0000
  c =      80.0000    gamma =  90.0000

  Initial cell volume =       46805.335898 Angs**3

  Temperature of configuration =  7.000     K

  Pressure of configuration =         0.000 GPa

  Fractional coordinates of asymmetric unit :

   No.  Atomic       x           y          z         Charge      Occupancy
        Label      (Frac)      (Frac)     (Frac)        (e)         (Frac)
  Region 1 :
      1 D     c    0.179364 *  0.262066 *  0.034862 *    0.0000    1.000000
      2 D     c    0.179364 *  0.762066 *  0.034862 *    0.0000    1.000000
      3 D     c    0.429364 *  0.262066 *  0.034862 *    0.0000    1.000000
      4 D     c    0.429364 *  0.762066 *  0.034862 *    0.0000    1.000000
      5 D     c    0.679364 *  0.262066 *  0.034862 *    0.0000    1.000000
      6 D     c    0.679364 *  0.762066 *  0.034862 *    0.0000    1.000000
      7 D     c    0.929364 *  0.262066 *  0.034862 *    0.0000    1.000000
      8 D     c    0.929364 *  0.762066 *  0.034862 *    0.0000    1.000000
      9 D     c    0.071022 *  0.395165 *  0.035425 *    0.0000    1.000000
     10 D     c    0.071022 *  0.895165 *  0.035425 *    0.0000    1.000000
     11 D     c    0.321022 *  0.395165 *  0.035425 *    0.0000    1.000000
     12 D     c    0.321022 *  0.895165 *  0.035425 *    0.0000    1.000000
     13 D     c    0.571022 *  0.395165 *  0.035425 *    0.0000    1.000000
     14 D     c    0.571022 *  0.895165 *  0.035425 *    0.0000    1.000000
     15 D     c    0.821022 *  0.395165 *  0.035425 *    0.0000    1.000000
     16 D     c    0.821022 *  0.895165 *  0.035425 *    0.0000    1.000000
     17 D     c    0.010272 *  0.226836 *  0.035875 *    0.0000    1.000000
     18 D     c    0.010272 *  0.726836 *  0.035875 *    0.0000    1.000000
     19 D     c    0.260272 *  0.226836 *  0.035875 *    0.0000    1.000000
     20 D     c    0.260272 *  0.726836 *  0.035875 *    0.0000    1.000000
     21 D     c    0.510272 *  0.226836 *  0.035875 *    0.0000    1.000000
     22 D     c    0.510272 *  0.726836 *  0.035875 *    0.0000    1.000000
     23 D     c    0.760272 *  0.226836 *  0.035875 *    0.0000    1.000000
     24 D     c    0.760272 *  0.726836 *  0.035875 *    0.0000    1.000000
     25 D     c    0.128463 *  0.068948 *  0.034612 *    0.0000    1.000000
     26 D     c    0.128463 *  0.568948 *  0.034612 *    0.0000    1.000000
     27 D     c    0.378463 *  0.068948 *  0.034612 *    0.0000    1.000000
     28 D     c    0.378463 *  0.568948 *  0.034612 *    0.0000    1.000000
     29 D     c    0.628463 *  0.068948 *  0.034612 *    0.0000    1.000000
     30 D     c    0.628463 *  0.568948 *  0.034612 *    0.0000    1.000000
     31 D     c    0.878463 *  0.068948 *  0.034612 *    0.0000    1.000000
     32 D     c    0.878463 *  0.568948 *  0.034612 *    0.0000    1.000000
  Region 2 :  Rigid translation fixed in xyz
     33 C     c    0.000000    0.000000    0.000000      0.0000    1.000000
     34 C     c    0.000000    0.500000    0.000000      0.0000    1.000000
     35 C     c    0.250000    0.000000    0.000000      0.0000    1.000000
     36 C     c    0.250000    0.500000    0.000000      0.0000    1.000000
     37 C     c    0.500000    0.000000    0.000000      0.0000    1.000000
     38 C     c    0.500000    0.500000    0.000000      0.0000    1.000000
     39 C     c    0.750000    0.000000    0.000000      0.0000    1.000000
     40 C     c    0.750000    0.500000    0.000000      0.0000    1.000000
     41 C     c    0.071445    0.071436    0.000000      0.0000    1.000000
     42 C     c    0.071445    0.571436    0.000000      0.0000    1.000000
     43 C     c    0.321445    0.071436    0.000000      0.0000    1.000000
     44 C     c    0.321445    0.571436    0.000000      0.0000    1.000000
     45 C     c    0.571445    0.071436    0.000000      0.0000    1.000000
     46 C     c    0.571445    0.571436    0.000000      0.0000    1.000000
     47 C     c    0.821445    0.071436    0.000000      0.0000    1.000000
     48 C     c    0.821445    0.571436    0.000000      0.0000    1.000000
     49 C     c    0.232150    0.273794    0.000000      0.0000    1.000000
     50 C     c    0.232150    0.773794    0.000000      0.0000    1.000000
     51 C     c    0.482150    0.273794    0.000000      0.0000    1.000000
     52 C     c    0.482150    0.773794    0.000000      0.0000    1.000000
     53 C     c    0.732150    0.273794    0.000000      0.0000    1.000000
     54 C     c    0.732150    0.773794    0.000000      0.0000    1.000000
     55 C     c    0.982150    0.273794    0.000000      0.0000    1.000000
     56 C     c    0.982150    0.773794    0.000000      0.0000    1.000000
     57 C     c    0.000000    0.166684    0.000000      0.0000    1.000000
     58 C     c    0.000000    0.666684    0.000000      0.0000    1.000000
     59 C     c    0.250000    0.166684    0.000000      0.0000    1.000000
     60 C     c    0.250000    0.666684    0.000000      0.0000    1.000000
     61 C     c    0.500000    0.166684    0.000000      0.0000    1.000000
     62 C     c    0.500000    0.666684    0.000000      0.0000    1.000000
     63 C     c    0.750000    0.166684    0.000000      0.0000    1.000000
     64 C     c    0.750000    0.666684    0.000000      0.0000    1.000000
     65 C     c    0.196446    0.488103    0.000000      0.0000    1.000000
     66 C     c    0.196446    0.988103    0.000000      0.0000    1.000000
     67 C     c    0.446446    0.488103    0.000000      0.0000    1.000000
     68 C     c    0.446446    0.988103    0.000000      0.0000    1.000000
     69 C     c    0.696446    0.488103    0.000000      0.0000    1.000000
     70 C     c    0.696446    0.988103    0.000000      0.0000    1.000000
     71 C     c    0.946446    0.488103    0.000000      0.0000    1.000000
     72 C     c    0.946446    0.988103    0.000000      0.0000    1.000000
     73 C     c    0.214298    0.380948    0.000000      0.0000    1.000000
     74 C     c    0.214298    0.880948    0.000000      0.0000    1.000000
     75 C     c    0.464298    0.380948    0.000000      0.0000    1.000000
     76 C     c    0.464298    0.880948    0.000000      0.0000    1.000000
     77 C     c    0.714298    0.380948    0.000000      0.0000    1.000000
     78 C     c    0.714298    0.880948    0.000000      0.0000    1.000000
     79 C     c    0.964298    0.380948    0.000000      0.0000    1.000000
     80 C     c    0.964298    0.880948    0.000000      0.0000    1.000000
     81 C     c    0.017852    0.059530    0.000000      0.0000    1.000000
     82 C     c    0.017852    0.559530    0.000000      0.0000    1.000000
     83 C     c    0.267852    0.059530    0.000000      0.0000    1.000000
     84 C     c    0.267852    0.559530    0.000000      0.0000    1.000000
     85 C     c    0.517852    0.059530    0.000000      0.0000    1.000000
     86 C     c    0.517852    0.559530    0.000000      0.0000    1.000000
     87 C     c    0.767852    0.059530    0.000000      0.0000    1.000000
     88 C     c    0.767852    0.559530    0.000000      0.0000    1.000000
     89 C     c    0.053555    0.178590    0.000000      0.0000    1.000000
     90 C     c    0.053555    0.678590    0.000000      0.0000    1.000000
     91 C     c    0.303555    0.178590    0.000000      0.0000    1.000000
     92 C     c    0.303555    0.678590    0.000000      0.0000    1.000000
[...]
    242 C     c    0.125001    0.916666    0.000000      0.0000    1.000000
    243 C     c    0.375001    0.416666    0.000000      0.0000    1.000000
    244 C     c    0.375001    0.916666    0.000000      0.0000    1.000000
    245 C     c    0.625001    0.416666    0.000000      0.0000    1.000000
    246 C     c    0.625001    0.916666    0.000000      0.0000    1.000000
    247 C     c    0.875001    0.416666    0.000000      0.0000    1.000000
    248 C     c    0.875001    0.916666    0.000000      0.0000    1.000000
    249 C     c    0.178556    0.428572    0.000000      0.0000    1.000000
    250 C     c    0.178556    0.928572    0.000000      0.0000    1.000000
    251 C     c    0.428556    0.428572    0.000000      0.0000    1.000000
    252 C     c    0.428556    0.928572    0.000000      0.0000    1.000000
    253 C     c    0.678556    0.428572    0.000000      0.0000    1.000000
    254 C     c    0.678556    0.928572    0.000000      0.0000    1.000000
    255 C     c    0.928556    0.428572    0.000000      0.0000    1.000000
    256 C     c    0.928556    0.928572    0.000000      0.0000    1.000000

  Molecule list generated from bond lengths :

  Total number of molecules =     1

Molecule No./:  Atoms
Periodicity  :
     1  2 xy : C    c   33 C    c   34 C    c   35 C    c   36 C    c   37
             : C    c   38 C    c   39 C    c   40 C    c   41 C    c   42
             : C    c   43 C    c   44 C    c   45 C    c   46 C    c   47
             : C    c   48 C    c   49 C    c   50 C    c   51 C    c   52
             : C    c   53 C    c   54 C    c   55 C    c   56 C    c   57
             : C    c   58 C    c   59 C    c   60 C    c   61 C    c   62
             : C    c   63 C    c   64 C    c   65 C    c   66 C    c   67
             : C    c   68 C    c   69 C    c   70 C    c   71 C    c   72
             : C    c   73 C    c   74 C    c   75 C    c   76 C    c   77
             : C    c   78 C    c   79 C    c   80 C    c   81 C    c   82
             : C    c   83 C    c   84 C    c   85 C    c   86 C    c   87
             : C    c   88 C    c   89 C    c   90 C    c   91 C    c   92
             : C    c   93 C    c   94 C    c   95 C    c   96 C    c   97
             : C    c   98 C    c   99 C    c  100 C    c  101 C    c  102
             : C    c  103 C    c  104 C    c  105 C    c  106 C    c  107
             : C    c  108 C    c  109 C    c  110 C    c  111 C    c  112
             : C    c  113 C    c  114 C    c  115 C    c  116 C    c  117
             : C    c  118 C    c  119 C    c  120 C    c  121 C    c  122
             : C    c  123 C    c  124 C    c  125 C    c  126 C    c  127
             : C    c  128 C    c  129 C    c  130 C    c  131 C    c  132
             : C    c  133 C    c  134 C    c  135 C    c  136 C    c  137
             : C    c  138 C    c  139 C    c  140 C    c  141 C    c  142
             : C    c  143 C    c  144 C    c  145 C    c  146 C    c  147
             : C    c  148 C    c  149 C    c  150 C    c  151 C    c  152
[...]
       Temperature       (K)  =       7.011273          6.977703
       Pressure         (GPa) =      -0.115508         -0.114924
  ** Time :            4.63000 ps :
     Properties:                   Instantaneous       Averaged
       Kinetic energy    (eV) =       0.028026          0.027960
       Potential energy  (eV) =   -1939.931478      -1939.916265
       Total energy      (eV) =   -1939.903453      -1939.888305
       Temperature       (K)  =       6.994088          6.977738
       Pressure         (GPa) =      -0.115426         -0.114925
  ** Time :            4.64000 ps :
     Properties:                   Instantaneous       Averaged
       Kinetic energy    (eV) =       0.027979          0.027960
       Potential energy  (eV) =   -1939.932486      -1939.916300
       Total energy      (eV) =   -1939.904507      -1939.888340
       Temperature       (K)  =       6.982444          6.977748
       Pressure         (GPa) =      -0.115298         -0.114926
  ** Time :            4.65000 ps :
     Properties:                   Instantaneous       Averaged
       Kinetic energy    (eV) =       0.027945          0.027960
       Potential energy  (eV) =   -1939.932819      -1939.916336
       Total energy      (eV) =   -1939.904873      -1939.888376
       Temperature       (K)  =       6.974052          6.977740
       Pressure         (GPa) =      -0.115128         -0.114927
  ** Time :            4.66000 ps :
     Properties:                   Instantaneous       Averaged
       Kinetic energy    (eV) =       0.027959          0.027960
       Potential energy  (eV) =   -1939.932216      -1939.916370
       Total energy      (eV) =   -1939.904256      -1939.888410
       Temperature       (K)  =       6.977528          6.977740
       Pressure         (GPa) =      -0.114931         -0.114927
  ** Time :            4.67000 ps :
     Properties:                   Instantaneous       Averaged
       Kinetic energy    (eV) =       0.028020          0.027960
       Potential energy  (eV) =   -1939.930818      -1939.916401
       Total energy      (eV) =   -1939.902799      -1939.888440
       Temperature       (K)  =       6.992569          6.977771
       Pressure         (GPa) =      -0.114727         -0.114926
  ** Time :            4.68000 ps :
     Properties:                   Instantaneous       Averaged
       Kinetic energy    (eV) =       0.028130          0.027961
       Potential energy  (eV) =   -1939.929245      -1939.916428
       Total energy      (eV) =   -1939.901114      -1939.888468
       Temperature       (K)  =       7.020162          6.977862
       Pressure         (GPa) =      -0.114550         -0.114925
  ** Time :            4.69000 ps :
     Properties:                   Instantaneous       Averaged
       Kinetic energy    (eV) =       0.028200          0.027961
       Potential energy  (eV) =   -1939.928420      -1939.916454
       Total energy      (eV) =   -1939.900221      -1939.888493
       Temperature       (K)  =       7.037469          6.977989
       Pressure         (GPa) =      -0.114436         -0.114924
  ** Time :            4.70000 ps :
     Properties:                   Instantaneous       Averaged
       Kinetic energy    (eV) =       0.028181          0.027962
       Potential energy  (eV) =   -1939.928922      -1939.916480
       Total energy      (eV) =   -1939.900741      -1939.888519
       Temperature       (K)  =       7.032881          6.978106
       Pressure         (GPa) =      -0.114412         -0.114923
  ** Time :            4.71000 ps :
     Properties:                   Instantaneous       Averaged
       Kinetic energy    (eV) =       0.028088          0.027962
       Potential energy  (eV) =   -1939.930554      -1939.916510
       Total energy      (eV) =   -1939.902466      -1939.888548
       Temperature       (K)  =       7.009632          6.978173
       Pressure         (GPa) =      -0.114480         -0.114922
  ** Time :            4.72000 ps :
     Properties:                   Instantaneous       Averaged
       Kinetic energy    (eV) =       0.028003          0.027962
       Potential energy  (eV) =   -1939.932553      -1939.916544
       Total energy      (eV) =   -1939.904549      -1939.888582
       Temperature       (K)  =       6.988477          6.978195
       Pressure         (GPa) =      -0.114616         -0.114922
  ** Time :            4.73000 ps :
     Properties:                   Instantaneous       Averaged
       Kinetic energy    (eV) =       0.027944          0.027962
       Potential energy  (eV) =   -1939.934132      -1939.916581
       Total energy      (eV) =   -1939.906188      -1939.888619
       Temperature       (K)  =       6.973751          6.978185
       Pressure         (GPa) =      -0.114792         -0.114921
  ** Time :            4.74000 ps :
     Properties:                   Instantaneous       Averaged
       Kinetic energy    (eV) =       0.027933          0.027962
       Potential energy  (eV) =   -1939.934768      -1939.916620
       Total energy      (eV) =   -1939.906835      -1939.888658
       Temperature       (K)  =       6.970867          6.978170
       Pressure         (GPa) =      -0.114979         -0.114922
  ** Time :            4.75000 ps :
     Properties:                   Instantaneous       Averaged
       Kinetic energy    (eV) =       0.027955          0.027962
       Potential energy  (eV) =   -1939.934323      -1939.916657
       Total energy      (eV) =   -1939.906368      -1939.888695
       Temperature       (K)  =       6.976526          6.978166
       Pressure         (GPa) =      -0.115156         -0.114922
  ** Time :            4.76000 ps :
     Properties:                   Instantaneous       Averaged
       Kinetic energy    (eV) =       0.028027          0.027962
       Potential energy  (eV) =   -1939.933053      -1939.916692
       Total energy      (eV) =   -1939.905026      -1939.888729
       Temperature       (K)  =       6.994510          6.978201
       Pressure         (GPa) =      -0.115310         -0.114923
  ** Time :            4.77000 ps :
     Properties:                   Instantaneous       Averaged
       Kinetic energy    (eV) =       0.028116          0.027962
       Potential energy  (eV) =   -1939.931612      -1939.916723
       Total energy      (eV) =   -1939.903496      -1939.888760
       Temperature       (K)  =       7.016604          6.978281
       Pressure         (GPa) =      -0.115434         -0.114924
  ** Time :            4.78000 ps :
     Properties:                   Instantaneous       Averaged
       Kinetic energy    (eV) =       0.028191          0.027963
       Potential energy  (eV) =   -1939.930821      -1939.916752
       Total energy      (eV) =   -1939.902630      -1939.888789
       Temperature       (K)  =       7.035211          6.978400
       Pressure         (GPa) =      -0.115528         -0.114925
  ** Time :            4.79000 ps :
     Properties:                   Instantaneous       Averaged
       Kinetic energy    (eV) =       0.028188          0.027963
       Potential energy  (eV) =   -1939.931290      -1939.916783
       Total energy      (eV) =   -1939.903102      -1939.888819
       Temperature       (K)  =       7.034631          6.978518
       Pressure         (GPa) =      -0.115587         -0.114927
  ** Time :            4.80000 ps :
     Properties:                   Instantaneous       Averaged
       Kinetic energy    (eV) =       0.028123          0.027964
       Potential energy  (eV) =   -1939.932999      -1939.916816
       Total energy      (eV) =   -1939.904876      -1939.888853
       Temperature       (K)  =       7.018463          6.978601
       Pressure         (GPa) =      -0.115607         -0.114928
  ** Time :            4.81000 ps :
     Properties:                   Instantaneous       Averaged
       Kinetic energy    (eV) =       0.028028          0.027964
       Potential energy  (eV) =   -1939.935350      -1939.916855
       Total energy      (eV) =   -1939.907323      -1939.888891
       Temperature       (K)  =       6.994585          6.978634
       Pressure         (GPa) =      -0.115580         -0.114929
  ** Time :            4.82000 ps :
     Properties:                   Instantaneous       Averaged
       Kinetic energy    (eV) =       0.027952          0.027964
       Potential energy  (eV) =   -1939.937504      -1939.916898
       Total energy      (eV) =   -1939.909552      -1939.888934
       Temperature       (K)  =       6.975760          6.978628
       Pressure         (GPa) =      -0.115500         -0.114931
  ** Time :            4.83000 ps :
     Properties:                   Instantaneous       Averaged
       Kinetic energy    (eV) =       0.027898          0.027964
       Potential energy  (eV) =   -1939.938731      -1939.916943
       Total energy      (eV) =   -1939.910833      -1939.888979
       Temperature       (K)  =       6.962310          6.978594
       Pressure         (GPa) =      -0.115366         -0.114931
  ** Time :            4.84000 ps :
     Properties:                   Instantaneous       Averaged
       Kinetic energy    (eV) =       0.027883          0.027964
       Potential energy  (eV) =   -1939.938540      -1939.916988
       Total energy      (eV) =   -1939.910657      -1939.889024
       Temperature       (K)  =       6.958483          6.978553
       Pressure         (GPa) =      -0.115186         -0.114932
  ** Time :            4.85000 ps :
     Properties:                   Instantaneous       Averaged
       Kinetic energy    (eV) =       0.027902          0.027963
       Potential energy  (eV) =   -1939.936773      -1939.917028
       Total energy      (eV) =   -1939.908872      -1939.889065
       Temperature       (K)  =       6.963103          6.978521
       Pressure         (GPa) =      -0.114974         -0.114932
  ** Time :            4.86000 ps :
     Properties:                   Instantaneous       Averaged
       Kinetic energy    (eV) =       0.027973          0.027963
       Potential energy  (eV) =   -1939.933650      -1939.917063
       Total energy      (eV) =   -1939.905677      -1939.889099
       Temperature       (K)  =       6.980891          6.978526
       Pressure         (GPa) =      -0.114754         -0.114932
  ** Time :            4.87000 ps :
     Properties:                   Instantaneous       Averaged
       Kinetic energy    (eV) =       0.028067          0.027964
       Potential energy  (eV) =   -1939.929820      -1939.917089
       Total energy      (eV) =   -1939.901753      -1939.889125
       Temperature       (K)  =       7.004402          6.978579
       Pressure         (GPa) =      -0.114559         -0.114931
  ** Time :            4.88000 ps :
     Properties:                   Instantaneous       Averaged
       Kinetic energy    (eV) =       0.028161          0.027964
       Potential energy  (eV) =   -1939.926166      -1939.917107
       Total energy      (eV) =   -1939.898005      -1939.889143
       Temperature       (K)  =       7.027799          6.978680
       Pressure         (GPa) =      -0.114427         -0.114930
  ** Time :            4.89000 ps :
     Properties:                   Instantaneous       Averaged
       Kinetic energy    (eV) =       0.028236          0.027965
       Potential energy  (eV) =   -1939.923580      -1939.917121
       Total energy      (eV) =   -1939.895345      -1939.889156
       Temperature       (K)  =       7.046496          6.978819
       Pressure         (GPa) =      -0.114388         -0.114929
  ** Time :            4.90000 ps :
     Properties:                   Instantaneous       Averaged
       Kinetic energy    (eV) =       0.028304          0.027965
       Potential energy  (eV) =   -1939.922858      -1939.917132
       Total energy      (eV) =   -1939.894554      -1939.889167
       Temperature       (K)  =       7.063594          6.978992
       Pressure         (GPa) =      -0.114461         -0.114928
  ** Time :            4.91000 ps :
     Properties:                   Instantaneous       Averaged
       Kinetic energy    (eV) =       0.028216          0.027966
       Potential energy  (eV) =   -1939.924401      -1939.917147
       Total energy      (eV) =   -1939.896185      -1939.889181
       Temperature       (K)  =       7.041664          6.979119
       Pressure         (GPa) =      -0.114637         -0.114927
  ** Time :            4.92000 ps :
     Properties:                   Instantaneous       Averaged
       Kinetic energy    (eV) =       0.028005          0.027966
       Potential energy  (eV) =   -1939.927288      -1939.917168
       Total energy      (eV) =   -1939.899283      -1939.889202
       Temperature       (K)  =       6.988872          6.979139
       Pressure         (GPa) =      -0.114874         -0.114927
  ** Time :            4.93000 ps :
     Properties:                   Instantaneous       Averaged
       Kinetic energy    (eV) =       0.027900          0.027966
       Potential energy  (eV) =   -1939.929862      -1939.917194
       Total energy      (eV) =   -1939.901962      -1939.889228
       Temperature       (K)  =       6.962707          6.979106
       Pressure         (GPa) =      -0.115117         -0.114928
  ** Time :            4.94000 ps :
     Properties:                   Instantaneous       Averaged
       Kinetic energy    (eV) =       0.027900          0.027966
       Potential energy  (eV) =   -1939.931189      -1939.917222
       Total energy      (eV) =   -1939.903289      -1939.889256
       Temperature       (K)  =       6.962806          6.979073
       Pressure         (GPa) =      -0.115325         -0.114928
  ** Time :            4.95000 ps :
     Properties:                   Instantaneous       Averaged
       Kinetic energy    (eV) =       0.027973          0.027966
       Potential energy  (eV) =   -1939.931225      -1939.917250
       Total energy      (eV) =   -1939.903252      -1939.889285
       Temperature       (K)  =       6.980811          6.979076
       Pressure         (GPa) =      -0.115479         -0.114929
  ** Time :            4.96000 ps :
     Properties:                   Instantaneous       Averaged
       Kinetic energy    (eV) =       0.028059          0.027966
       Potential energy  (eV) =   -1939.930549      -1939.917277
       Total energy      (eV) =   -1939.902490      -1939.889311
       Temperature       (K)  =       7.002327          6.979123
       Pressure         (GPa) =      -0.115575         -0.114931
  ** Time :            4.97000 ps :
     Properties:                   Instantaneous       Averaged
       Kinetic energy    (eV) =       0.028132          0.027966
       Potential energy  (eV) =   -1939.929954      -1939.917302
       Total energy      (eV) =   -1939.901822      -1939.889336
       Temperature       (K)  =       7.020565          6.979206
       Pressure         (GPa) =      -0.115615         -0.114932
  ** Time :            4.98000 ps :
     Properties:                   Instantaneous       Averaged
       Kinetic energy    (eV) =       0.028127          0.027966
       Potential energy  (eV) =   -1939.930024      -1939.917328
       Total energy      (eV) =   -1939.901896      -1939.889362
       Temperature       (K)  =       7.019374          6.979287
       Pressure         (GPa) =      -0.115601         -0.114933
  ** Time :            4.99000 ps :
     Properties:                   Instantaneous       Averaged
       Kinetic energy    (eV) =       0.028078          0.027967
       Potential energy  (eV) =   -1939.930752      -1939.917355
       Total energy      (eV) =   -1939.902674      -1939.889388
       Temperature       (K)  =       7.007092          6.979343
       Pressure         (GPa) =      -0.115536         -0.114935
  ** Time :            5.00000 ps :
     Properties:                   Instantaneous       Averaged
       Kinetic energy    (eV) =       0.028038          0.027967
       Potential energy  (eV) =   -1939.931753      -1939.917384
       Total energy      (eV) =   -1939.903715      -1939.889417
       Temperature       (K)  =       6.997159          6.979378
       Pressure         (GPa) =      -0.115422         -0.114936

  Timing analysis for GULP :

  Task / Subroutine                                          Time (Seconds)
  Calculation of real space energy and derivatives              676.4463
  Calculation of three-body energy and derivatives                2.3442
  Calculation of four-body energy and derivatives                 8.8445
  Global summation overhead                                       0.0120

  Dump file written as surf.res

  Job Finished at 15:56.01  2nd December   2008